benchmark/results/graph__15-1000-0.10-03_16/graph__15-1000-0.10-03_16_QuintonOs_Benders_primal_sub.lp
\ This file has been generated by DOcplex
\ ENCODING=ISO-8859-1
\Problem name: Quinton Bounded Benders_primal_sub

Maximize
 obj: tau
Subject To
 c1: tau <= 0.000818330606
 c2: y_a0_proc_0 + y_a0_proc_2 - tau = 0
 c3: y_a0_proc_0 <= 0
 c4: y_a0_proc_2 <= 1
 c5: tau <= 0.001519756839
 c6: y_a1_proc_0 + y_a1_proc_1 + y_a1_proc_2 - tau = 0
 c7: y_a1_proc_0 <= 0
 c8: y_a1_proc_1 <= 0
 c9: y_a1_proc_2 <= 1
 c10: tau <= 0.001256281407
 c11: y_a2_proc_1 + y_a2_proc_2 - tau = 0
 c12: y_a2_proc_1 <= 1
 c13: y_a2_proc_2 <= 0
 c14: tau <= 0.001430615165
 c15: y_a3_proc_0 + y_a3_proc_1 - tau = 0
 c16: y_a3_proc_0 <= 0
 c17: y_a3_proc_1 <= 1
 c18: tau <= 0.003344481605
 c19: y_a4_proc_1 + y_a4_proc_2 - tau = 0
 c20: y_a4_proc_1 <= 1
 c21: y_a4_proc_2 <= 0
 c22: tau <= 0.001597444089
 c23: y_a5_proc_0 + y_a5_proc_1 + y_a5_proc_2 - tau = 0
 c24: y_a5_proc_0 <= 0
 c25: y_a5_proc_1 <= 0
 c26: y_a5_proc_2 <= 1
 c27: tau <= 0.000827129859
 c28: y_a6_proc_0 + y_a6_proc_2 - tau = 0
 c29: y_a6_proc_0 <= 1
 c30: y_a6_proc_2 <= 0
 c31: tau <= 0.000893655049
 c32: y_a7_proc_0 + y_a7_proc_1 - tau = 0
 c33: y_a7_proc_0 <= 0
 c34: y_a7_proc_1 <= 1
 c35: tau <= 0.001418439716
 c36: y_a8_proc_0 + y_a8_proc_1 + y_a8_proc_2 - tau = 0
 c37: y_a8_proc_0 <= 0
 c38: y_a8_proc_1 <= 1
 c39: y_a8_proc_2 <= 0
 c40: tau <= 0.000957854406
 c41: y_a9_proc_0 + y_a9_proc_2 - tau = 0
 c42: y_a9_proc_0 <= 0
 c43: y_a9_proc_2 <= 1
 c44: tau <= 0.000946969697
 c45: y_a10_proc_0 + y_a10_proc_2 - tau = 0
 c46: y_a10_proc_0 <= 1
 c47: y_a10_proc_2 <= 0
 c48: tau <= 0.001179245283
 c49: y_a11_proc_0 + y_a11_proc_1 + y_a11_proc_2 - tau = 0
 c50: y_a11_proc_0 <= 0
 c51: y_a11_proc_1 <= 0
 c52: y_a11_proc_2 <= 1
 c53: tau <= 0.002232142857
 c54: y_a12_proc_0 + y_a12_proc_1 + y_a12_proc_2 - tau = 0
 c55: y_a12_proc_0 <= 0
 c56: y_a12_proc_1 <= 0
 c57: y_a12_proc_2 <= 1
 c58: tau <= 0.001015228426
 c59: y_a13_proc_0 + y_a13_proc_1 + y_a13_proc_2 - tau = 0
 c60: y_a13_proc_0 <= 1
 c61: y_a13_proc_1 <= 0
 c62: y_a13_proc_2 <= 0
 c63: tau <= 0.000869565217
 c64: y_a14_proc_0 + y_a14_proc_1 + y_a14_proc_2 - tau = 0
 c65: y_a14_proc_0 <= 0
 c66: y_a14_proc_1 <= 1
 c67: y_a14_proc_2 <= 0
 c68: u_a1 - u_a0 - 1213 y_a0_proc_0 - 1222 y_a0_proc_2 >= 0
 c69: u_a0 - u_a2 - 796 y_a2_proc_1 - 1193 y_a2_proc_2 >= -1
 c70: u_a2 - u_a3 - 857 y_a3_proc_0 - 699 y_a3_proc_1 >= 0
 c71: u_a3 - u_a4 - 299 y_a4_proc_1 - 1065 y_a4_proc_2 >= 0
 c72: u_a5 - u_a0 - 1213 y_a0_proc_0 - 1222 y_a0_proc_2 >= 0
 c73: u_a4 - u_a6 - 1209 y_a6_proc_0 - 986 y_a6_proc_2 >= 0
 c74: u_a7 - u_a5 - 1181 y_a5_proc_0 - 738 y_a5_proc_1 - 626 y_a5_proc_2 >= 0
 c75: u_a7 - u_a8 - 1088 y_a8_proc_0 - 705 y_a8_proc_1 - 1089 y_a8_proc_2 >= 0
 c76: u_a9 - u_a6 - 1209 y_a6_proc_0 - 986 y_a6_proc_2 >= -1
 c77: u_a10 - u_a8 - 1088 y_a8_proc_0 - 705 y_a8_proc_1 - 1089 y_a8_proc_2 >= 0
 c78: u_a8 - u_a11 - 1080 y_a11_proc_0 - 981 y_a11_proc_1 - 848 y_a11_proc_2
       >= 0
 c79: u_a12 - u_a10 - 1056 y_a10_proc_0 - 1254 y_a10_proc_2 >= 0
 c80: u_a4 - u_a13 - 985 y_a13_proc_0 - 1165 y_a13_proc_1 - 1223 y_a13_proc_2
       >= -1
 c81: u_a14 - u_a11 - 1080 y_a11_proc_0 - 981 y_a11_proc_1 - 848 y_a11_proc_2
       >= 0
 c82: u_a11 - u_a13 - 985 y_a13_proc_0 - 1165 y_a13_proc_1 - 1223 y_a13_proc_2
       >= -1
 c83: u_a14 - u_a7 - 974 y_a7_proc_0 - 1119 y_a7_proc_1 >= 0
 c84: u_a6 - u_a9 - 858 y_a9_proc_0 - 1044 y_a9_proc_2 >= 0
 c85: u_a13 - u_a12 - 1202 y_a12_proc_0 - 1266 y_a12_proc_1 - 448 y_a12_proc_2
       >= 0
 c86: u_a11 - u_a1 - 1093 y_a1_proc_0 - 1031 y_a1_proc_1 - 658 y_a1_proc_2 >= 0
 c87: u_a11 - u_a2 - 796 y_a2_proc_1 - 1193 y_a2_proc_2 >= 0
 c88: u_a5 - u_a12 - 1202 y_a12_proc_0 - 1266 y_a12_proc_1 - 448 y_a12_proc_2
       >= 0
 c89: u_a1 - u_a0 - 1222 y_a0_proc_2 >= 0
 c90: u_a1 - u_a0 - 1213 y_a0_proc_0 >= -2532
 c91: u_a0 - u_a1 - 658 y_a1_proc_2 >= -1
 c92: u_a0 - u_a1 - 1093 y_a1_proc_0 >= -2533
 c93: u_a2 - u_a0 - 1222 y_a0_proc_2 >= -1284
 c94: u_a0 - u_a2 - 1193 y_a2_proc_2 >= -1249
 c95: u_a3 - u_a0 - 1213 y_a0_proc_0 >= -2515
 c96: u_a0 - u_a3 - 857 y_a3_proc_0 >= -2550
 c97: u_a4 - u_a0 - 1222 y_a0_proc_2 >= -1284
 c98: u_a0 - u_a4 - 1065 y_a4_proc_2 >= -1249
 c99: u_a5 - u_a0 - 1222 y_a0_proc_2 >= 9
 c100: u_a5 - u_a0 - 1213 y_a0_proc_0 >= -2523
 c101: u_a0 - u_a5 - 626 y_a5_proc_2 >= -10
 c102: u_a0 - u_a5 - 1181 y_a5_proc_0 >= -2542
 c103: u_a6 - u_a0 - 1222 y_a0_proc_2 >= -1249
 c104: u_a6 - u_a0 - 1213 y_a0_proc_0 >= -1249
 c105: u_a0 - u_a6 - 986 y_a6_proc_2 >= -1284
 c106: u_a0 - u_a6 - 1209 y_a6_proc_0 >= -1284
 c107: u_a7 - u_a0 - 1213 y_a0_proc_0 >= -2532
 c108: u_a0 - u_a7 - 974 y_a7_proc_0 >= -2533
 c109: u_a8 - u_a0 - 1222 y_a0_proc_2 >= -1249
 c110: u_a8 - u_a0 - 1213 y_a0_proc_0 >= -2515
 c111: u_a0 - u_a8 - 1089 y_a8_proc_2 >= -1284
 c112: u_a0 - u_a8 - 1088 y_a8_proc_0 >= -2550
 c113: u_a9 - u_a0 - 1222 y_a0_proc_2 >= -9
 c114: u_a9 - u_a0 - 1213 y_a0_proc_0 >= -2541
 c115: u_a0 - u_a9 - 1044 y_a9_proc_2 >= 8
 c116: u_a0 - u_a9 - 858 y_a9_proc_0 >= -2524
 c117: u_a10 - u_a0 - 1222 y_a0_proc_2 >= -1249
 c118: u_a10 - u_a0 - 1213 y_a0_proc_0 >= -1249
 c119: u_a0 - u_a10 - 1254 y_a10_proc_2 >= -1284
 c120: u_a0 - u_a10 - 1056 y_a10_proc_0 >= -1284
 c121: u_a11 - u_a0 - 1222 y_a0_proc_2 >= 0
 c122: u_a11 - u_a0 - 1213 y_a0_proc_0 >= -2532
 c123: u_a0 - u_a11 - 848 y_a11_proc_2 >= -1
 c124: u_a0 - u_a11 - 1080 y_a11_proc_0 >= -2533
 c125: u_a12 - u_a0 - 1222 y_a0_proc_2 >= 0
 c126: u_a12 - u_a0 - 1213 y_a0_proc_0 >= -2532
 c127: u_a0 - u_a12 - 448 y_a12_proc_2 >= -1
 c128: u_a0 - u_a12 - 1202 y_a12_proc_0 >= -2533
 c129: u_a13 - u_a0 - 1222 y_a0_proc_2 >= -1284
 c130: u_a13 - u_a0 - 1213 y_a0_proc_0 >= -1284
 c131: u_a0 - u_a13 - 1223 y_a13_proc_2 >= -1249
 c132: u_a0 - u_a13 - 985 y_a13_proc_0 >= -1249
 c133: u_a14 - u_a0 - 1222 y_a0_proc_2 >= -1284
 c134: u_a14 - u_a0 - 1213 y_a0_proc_0 >= -2550
 c135: u_a0 - u_a14 - 1106 y_a14_proc_2 >= -1249
 c136: u_a0 - u_a14 - 850 y_a14_proc_0 >= -2515
 c137: u_a2 - u_a1 - 658 y_a1_proc_2 >= -1284
 c138: u_a2 - u_a1 - 1031 y_a1_proc_1 >= -1284
 c139: u_a1 - u_a2 - 1193 y_a2_proc_2 >= -1249
 c140: u_a1 - u_a2 - 796 y_a2_proc_1 >= -1249
 c141: u_a3 - u_a1 - 1093 y_a1_proc_0 >= -2515
 c142: u_a3 - u_a1 - 1031 y_a1_proc_1 >= -1249
 c143: u_a1 - u_a3 - 857 y_a3_proc_0 >= -2550
 c144: u_a1 - u_a3 - 699 y_a3_proc_1 >= -1284
 c145: u_a4 - u_a1 - 658 y_a1_proc_2 >= -1249
 c146: u_a4 - u_a1 - 1031 y_a1_proc_1 >= -1249
 c147: u_a1 - u_a4 - 1065 y_a4_proc_2 >= -1284
 c148: u_a1 - u_a4 - 299 y_a4_proc_1 >= -1284
 c149: u_a5 - u_a1 - 658 y_a1_proc_2 >= 9
 c150: u_a5 - u_a1 - 1093 y_a1_proc_0 >= -2523
 c151: u_a5 - u_a1 - 1031 y_a1_proc_1 >= -2523
 c152: u_a1 - u_a5 - 626 y_a5_proc_2 >= -10
 c153: u_a1 - u_a5 - 1181 y_a5_proc_0 >= -2542
 c154: u_a1 - u_a5 - 738 y_a5_proc_1 >= -2542
 c155: u_a6 - u_a1 - 658 y_a1_proc_2 >= -1249
 c156: u_a6 - u_a1 - 1093 y_a1_proc_0 >= -1249
 c157: u_a1 - u_a6 - 986 y_a6_proc_2 >= -1284
 c158: u_a1 - u_a6 - 1209 y_a6_proc_0 >= -1284
 c159: u_a7 - u_a1 - 1093 y_a1_proc_0 >= -2515
 c160: u_a7 - u_a1 - 1031 y_a1_proc_1 >= -1249
 c161: u_a1 - u_a7 - 974 y_a7_proc_0 >= -2550
 c162: u_a1 - u_a7 - 1119 y_a7_proc_1 >= -1284
 c163: u_a8 - u_a1 - 658 y_a1_proc_2 >= -1284
 c164: u_a8 - u_a1 - 1093 y_a1_proc_0 >= -2550
 c165: u_a8 - u_a1 - 1031 y_a1_proc_1 >= -1284
 c166: u_a1 - u_a8 - 1089 y_a8_proc_2 >= -1249
 c167: u_a1 - u_a8 - 1088 y_a8_proc_0 >= -2515
 c168: u_a1 - u_a8 - 705 y_a8_proc_1 >= -1249
 c169: u_a9 - u_a1 - 658 y_a1_proc_2 >= -9
 c170: u_a9 - u_a1 - 1093 y_a1_proc_0 >= -2541
 c171: u_a1 - u_a9 - 1044 y_a9_proc_2 >= 8
 c172: u_a1 - u_a9 - 858 y_a9_proc_0 >= -2524
 c173: u_a10 - u_a1 - 658 y_a1_proc_2 >= -1249
 c174: u_a10 - u_a1 - 1093 y_a1_proc_0 >= -1249
 c175: u_a1 - u_a10 - 1254 y_a10_proc_2 >= -1284
 c176: u_a1 - u_a10 - 1056 y_a10_proc_0 >= -1284
 c177: u_a11 - u_a1 - 658 y_a1_proc_2 >= 0
 c178: u_a11 - u_a1 - 1093 y_a1_proc_0 >= -2532
 c179: u_a11 - u_a1 - 1031 y_a1_proc_1 >= -2532
 c180: u_a1 - u_a11 - 848 y_a11_proc_2 >= -1
 c181: u_a1 - u_a11 - 1080 y_a11_proc_0 >= -2533
 c182: u_a1 - u_a11 - 981 y_a11_proc_1 >= -2533
 c183: u_a12 - u_a1 - 658 y_a1_proc_2 >= 0
 c184: u_a12 - u_a1 - 1093 y_a1_proc_0 >= -2532
 c185: u_a12 - u_a1 - 1031 y_a1_proc_1 >= -2532
 c186: u_a1 - u_a12 - 448 y_a12_proc_2 >= -1
 c187: u_a1 - u_a12 - 1202 y_a12_proc_0 >= -2533
 c188: u_a1 - u_a12 - 1266 y_a12_proc_1 >= -2533
 c189: u_a13 - u_a1 - 658 y_a1_proc_2 >= -1284
 c190: u_a13 - u_a1 - 1093 y_a1_proc_0 >= -1284
 c191: u_a13 - u_a1 - 1031 y_a1_proc_1 >= -2550
 c192: u_a1 - u_a13 - 1223 y_a13_proc_2 >= -1249
 c193: u_a1 - u_a13 - 985 y_a13_proc_0 >= -1249
 c194: u_a1 - u_a13 - 1165 y_a13_proc_1 >= -2515
 c195: u_a14 - u_a1 - 658 y_a1_proc_2 >= -1249
 c196: u_a14 - u_a1 - 1093 y_a1_proc_0 >= -2515
 c197: u_a14 - u_a1 - 1031 y_a1_proc_1 >= -1249
 c198: u_a1 - u_a14 - 1106 y_a14_proc_2 >= -1284
 c199: u_a1 - u_a14 - 850 y_a14_proc_0 >= -2550
 c200: u_a1 - u_a14 - 1150 y_a14_proc_1 >= -1284
 c201: u_a3 - u_a2 - 796 y_a2_proc_1 >= -1
 c202: u_a2 - u_a3 - 699 y_a3_proc_1 >= 0
 c203: u_a4 - u_a2 - 1193 y_a2_proc_2 >= -2533
 c204: u_a4 - u_a2 - 796 y_a2_proc_1 >= -1
 c205: u_a2 - u_a4 - 1065 y_a4_proc_2 >= -2532
 c206: u_a2 - u_a4 - 299 y_a4_proc_1 >= 0
 c207: u_a5 - u_a2 - 1193 y_a2_proc_2 >= -1249
 c208: u_a5 - u_a2 - 796 y_a2_proc_1 >= -1249
 c209: u_a2 - u_a5 - 626 y_a5_proc_2 >= -1284
 c210: u_a2 - u_a5 - 738 y_a5_proc_1 >= -1284
 c211: u_a6 - u_a2 - 1193 y_a2_proc_2 >= -2550
 c212: u_a2 - u_a6 - 986 y_a6_proc_2 >= -2515
 c213: u_a7 - u_a2 - 796 y_a2_proc_1 >= 17
 c214: u_a2 - u_a7 - 1119 y_a7_proc_1 >= -18
 c215: u_a8 - u_a2 - 1193 y_a2_proc_2 >= -2532
 c216: u_a8 - u_a2 - 796 y_a2_proc_1 >= 0
 c217: u_a2 - u_a8 - 1089 y_a8_proc_2 >= -2533
 c218: u_a2 - u_a8 - 705 y_a8_proc_1 >= -1
 c219: u_a9 - u_a2 - 1193 y_a2_proc_2 >= -1249
 c220: u_a2 - u_a9 - 1044 y_a9_proc_2 >= -1284
 c221: u_a10 - u_a2 - 1193 y_a2_proc_2 >= -2550
 c222: u_a2 - u_a10 - 1254 y_a10_proc_2 >= -2515
 c223: u_a11 - u_a2 - 1193 y_a2_proc_2 >= -1284
 c224: u_a11 - u_a2 - 796 y_a2_proc_1 >= -1284
 c225: u_a2 - u_a11 - 848 y_a11_proc_2 >= -1249
 c226: u_a2 - u_a11 - 981 y_a11_proc_1 >= -1249
 c227: u_a12 - u_a2 - 1193 y_a2_proc_2 >= -1284
 c228: u_a12 - u_a2 - 796 y_a2_proc_1 >= -1284
 c229: u_a2 - u_a12 - 448 y_a12_proc_2 >= -1249
 c230: u_a2 - u_a12 - 1266 y_a12_proc_1 >= -1249
 c231: u_a13 - u_a2 - 1193 y_a2_proc_2 >= -2550
 c232: u_a13 - u_a2 - 796 y_a2_proc_1 >= -1284
 c233: u_a2 - u_a13 - 1223 y_a13_proc_2 >= -2515
 c234: u_a2 - u_a13 - 1165 y_a13_proc_1 >= -1249
 c235: u_a14 - u_a2 - 1193 y_a2_proc_2 >= -2515
 c236: u_a14 - u_a2 - 796 y_a2_proc_1 >= 17
 c237: u_a2 - u_a14 - 1106 y_a14_proc_2 >= -2550
 c238: u_a2 - u_a14 - 1150 y_a14_proc_1 >= -18
 c239: u_a4 - u_a3 - 699 y_a3_proc_1 >= -1
 c240: u_a3 - u_a4 - 299 y_a4_proc_1 >= 0
 c241: u_a5 - u_a3 - 857 y_a3_proc_0 >= -2515
 c242: u_a5 - u_a3 - 699 y_a3_proc_1 >= -1249
 c243: u_a3 - u_a5 - 1181 y_a5_proc_0 >= -2550
 c244: u_a3 - u_a5 - 738 y_a5_proc_1 >= -1284
 c245: u_a6 - u_a3 - 857 y_a3_proc_0 >= -1284
 c246: u_a3 - u_a6 - 1209 y_a6_proc_0 >= -1249
 c247: u_a7 - u_a3 - 857 y_a3_proc_0 >= -2515
 c248: u_a7 - u_a3 - 699 y_a3_proc_1 >= 17
 c249: u_a3 - u_a7 - 974 y_a7_proc_0 >= -2550
 c250: u_a3 - u_a7 - 1119 y_a7_proc_1 >= -18
 c251: u_a8 - u_a3 - 857 y_a3_proc_0 >= -2532
 c252: u_a8 - u_a3 - 699 y_a3_proc_1 >= 0
 c253: u_a3 - u_a8 - 1088 y_a8_proc_0 >= -2533
 c254: u_a3 - u_a8 - 705 y_a8_proc_1 >= -1
 c255: u_a9 - u_a3 - 857 y_a3_proc_0 >= -2550
 c256: u_a3 - u_a9 - 858 y_a9_proc_0 >= -2515
 c257: u_a10 - u_a3 - 857 y_a3_proc_0 >= -1284
 c258: u_a3 - u_a10 - 1056 y_a10_proc_0 >= -1249
 c259: u_a11 - u_a3 - 857 y_a3_proc_0 >= -2550
 c260: u_a11 - u_a3 - 699 y_a3_proc_1 >= -1284
 c261: u_a3 - u_a11 - 1080 y_a11_proc_0 >= -2515
 c262: u_a3 - u_a11 - 981 y_a11_proc_1 >= -1249
 c263: u_a12 - u_a3 - 857 y_a3_proc_0 >= -2550
 c264: u_a12 - u_a3 - 699 y_a3_proc_1 >= -1284
 c265: u_a3 - u_a12 - 1202 y_a12_proc_0 >= -2515
 c266: u_a3 - u_a12 - 1266 y_a12_proc_1 >= -1249
 c267: u_a13 - u_a3 - 857 y_a3_proc_0 >= -1249
 c268: u_a13 - u_a3 - 699 y_a3_proc_1 >= -1249
 c269: u_a3 - u_a13 - 985 y_a13_proc_0 >= -1284
 c270: u_a3 - u_a13 - 1165 y_a13_proc_1 >= -1284
 c271: u_a14 - u_a3 - 857 y_a3_proc_0 >= -2515
 c272: u_a14 - u_a3 - 699 y_a3_proc_1 >= 17
 c273: u_a3 - u_a14 - 850 y_a14_proc_0 >= -2550
 c274: u_a3 - u_a14 - 1150 y_a14_proc_1 >= -18
 c275: u_a5 - u_a4 - 1065 y_a4_proc_2 >= -1284
 c276: u_a5 - u_a4 - 299 y_a4_proc_1 >= -1284
 c277: u_a4 - u_a5 - 626 y_a5_proc_2 >= -1249
 c278: u_a4 - u_a5 - 738 y_a5_proc_1 >= -1249
 c279: u_a6 - u_a4 - 1065 y_a4_proc_2 >= -2550
 c280: u_a4 - u_a6 - 986 y_a6_proc_2 >= -2515
 c281: u_a7 - u_a4 - 299 y_a4_proc_1 >= 17
 c282: u_a4 - u_a7 - 1119 y_a7_proc_1 >= -18
 c283: u_a8 - u_a4 - 1065 y_a4_proc_2 >= -2532
 c284: u_a8 - u_a4 - 299 y_a4_proc_1 >= 0
 c285: u_a4 - u_a8 - 1089 y_a8_proc_2 >= -2533
 c286: u_a4 - u_a8 - 705 y_a8_proc_1 >= -1
 c287: u_a9 - u_a4 - 1065 y_a4_proc_2 >= -1284
 c288: u_a4 - u_a9 - 1044 y_a9_proc_2 >= -1249
 c289: u_a10 - u_a4 - 1065 y_a4_proc_2 >= -2550
 c290: u_a4 - u_a10 - 1254 y_a10_proc_2 >= -2515
 c291: u_a11 - u_a4 - 1065 y_a4_proc_2 >= -1284
 c292: u_a11 - u_a4 - 299 y_a4_proc_1 >= -1284
 c293: u_a4 - u_a11 - 848 y_a11_proc_2 >= -1249
 c294: u_a4 - u_a11 - 981 y_a11_proc_1 >= -1249
 c295: u_a12 - u_a4 - 1065 y_a4_proc_2 >= -1249
 c296: u_a12 - u_a4 - 299 y_a4_proc_1 >= -1249
 c297: u_a4 - u_a12 - 448 y_a12_proc_2 >= -1284
 c298: u_a4 - u_a12 - 1266 y_a12_proc_1 >= -1284
 c299: u_a13 - u_a4 - 1065 y_a4_proc_2 >= -2550
 c300: u_a13 - u_a4 - 299 y_a4_proc_1 >= -1284
 c301: u_a4 - u_a13 - 1223 y_a13_proc_2 >= -2515
 c302: u_a4 - u_a13 - 1165 y_a13_proc_1 >= -1249
 c303: u_a14 - u_a4 - 1065 y_a4_proc_2 >= -2515
 c304: u_a14 - u_a4 - 299 y_a4_proc_1 >= 17
 c305: u_a4 - u_a14 - 1106 y_a14_proc_2 >= -2550
 c306: u_a4 - u_a14 - 1150 y_a14_proc_1 >= -18
 c307: u_a6 - u_a5 - 626 y_a5_proc_2 >= -1284
 c308: u_a6 - u_a5 - 1181 y_a5_proc_0 >= -1284
 c309: u_a5 - u_a6 - 986 y_a6_proc_2 >= -1249
 c310: u_a5 - u_a6 - 1209 y_a6_proc_0 >= -1249
 c311: u_a7 - u_a5 - 1181 y_a5_proc_0 >= -2515
 c312: u_a7 - u_a5 - 738 y_a5_proc_1 >= -1249
 c313: u_a5 - u_a7 - 974 y_a7_proc_0 >= -2550
 c314: u_a5 - u_a7 - 1119 y_a7_proc_1 >= -1284
 c315: u_a8 - u_a5 - 626 y_a5_proc_2 >= -1249
 c316: u_a8 - u_a5 - 1181 y_a5_proc_0 >= -2515
 c317: u_a8 - u_a5 - 738 y_a5_proc_1 >= -1249
 c318: u_a5 - u_a8 - 1089 y_a8_proc_2 >= -1284
 c319: u_a5 - u_a8 - 1088 y_a8_proc_0 >= -2550
 c320: u_a5 - u_a8 - 705 y_a8_proc_1 >= -1284
 c321: u_a9 - u_a5 - 626 y_a5_proc_2 >= -18
 c322: u_a9 - u_a5 - 1181 y_a5_proc_0 >= -2550
 c323: u_a5 - u_a9 - 1044 y_a9_proc_2 >= 17
 c324: u_a5 - u_a9 - 858 y_a9_proc_0 >= -2515
 c325: u_a10 - u_a5 - 626 y_a5_proc_2 >= -1284
 c326: u_a10 - u_a5 - 1181 y_a5_proc_0 >= -1284
 c327: u_a5 - u_a10 - 1254 y_a10_proc_2 >= -1249
 c328: u_a5 - u_a10 - 1056 y_a10_proc_0 >= -1249
 c329: u_a11 - u_a5 - 626 y_a5_proc_2 >= -10
 c330: u_a11 - u_a5 - 1181 y_a5_proc_0 >= -2542
 c331: u_a11 - u_a5 - 738 y_a5_proc_1 >= -2542
 c332: u_a5 - u_a11 - 848 y_a11_proc_2 >= 9
 c333: u_a5 - u_a11 - 1080 y_a11_proc_0 >= -2523
 c334: u_a5 - u_a11 - 981 y_a11_proc_1 >= -2523
 c335: u_a12 - u_a5 - 626 y_a5_proc_2 >= -9
 c336: u_a12 - u_a5 - 1181 y_a5_proc_0 >= -2541
 c337: u_a12 - u_a5 - 738 y_a5_proc_1 >= -2541
 c338: u_a5 - u_a12 - 448 y_a12_proc_2 >= 8
 c339: u_a5 - u_a12 - 1202 y_a12_proc_0 >= -2524
 c340: u_a5 - u_a12 - 1266 y_a12_proc_1 >= -2524
 c341: u_a13 - u_a5 - 626 y_a5_proc_2 >= -1284
 c342: u_a13 - u_a5 - 1181 y_a5_proc_0 >= -1284
 c343: u_a13 - u_a5 - 738 y_a5_proc_1 >= -2550
 c344: u_a5 - u_a13 - 1223 y_a13_proc_2 >= -1249
 c345: u_a5 - u_a13 - 985 y_a13_proc_0 >= -1249
 c346: u_a5 - u_a13 - 1165 y_a13_proc_1 >= -2515
 c347: u_a14 - u_a5 - 626 y_a5_proc_2 >= -1249
 c348: u_a14 - u_a5 - 1181 y_a5_proc_0 >= -2515
 c349: u_a14 - u_a5 - 738 y_a5_proc_1 >= -1249
 c350: u_a5 - u_a14 - 1106 y_a14_proc_2 >= -1284
 c351: u_a5 - u_a14 - 850 y_a14_proc_0 >= -2550
 c352: u_a5 - u_a14 - 1150 y_a14_proc_1 >= -1284
 c353: u_a7 - u_a6 - 1209 y_a6_proc_0 >= -1284
 c354: u_a6 - u_a7 - 974 y_a7_proc_0 >= -1249
 c355: u_a8 - u_a6 - 986 y_a6_proc_2 >= -2550
 c356: u_a8 - u_a6 - 1209 y_a6_proc_0 >= -1284
 c357: u_a6 - u_a8 - 1089 y_a8_proc_2 >= -2515
 c358: u_a6 - u_a8 - 1088 y_a8_proc_0 >= -1249
 c359: u_a9 - u_a6 - 986 y_a6_proc_2 >= -1284
 c360: u_a9 - u_a6 - 1209 y_a6_proc_0 >= -1284
 c361: u_a6 - u_a9 - 1044 y_a9_proc_2 >= -1249
 c362: u_a6 - u_a9 - 858 y_a9_proc_0 >= -1249
 c363: u_a10 - u_a6 - 986 y_a6_proc_2 >= -2524
 c364: u_a10 - u_a6 - 1209 y_a6_proc_0 >= 8
 c365: u_a6 - u_a10 - 1254 y_a10_proc_2 >= -2541
 c366: u_a6 - u_a10 - 1056 y_a10_proc_0 >= -9
 c367: u_a11 - u_a6 - 986 y_a6_proc_2 >= -1249
 c368: u_a11 - u_a6 - 1209 y_a6_proc_0 >= -1249
 c369: u_a6 - u_a11 - 848 y_a11_proc_2 >= -1284
 c370: u_a6 - u_a11 - 1080 y_a11_proc_0 >= -1284
 c371: u_a12 - u_a6 - 986 y_a6_proc_2 >= -1284
 c372: u_a12 - u_a6 - 1209 y_a6_proc_0 >= -1284
 c373: u_a6 - u_a12 - 448 y_a12_proc_2 >= -1249
 c374: u_a6 - u_a12 - 1202 y_a12_proc_0 >= -1249
 c375: u_a13 - u_a6 - 986 y_a6_proc_2 >= -2524
 c376: u_a13 - u_a6 - 1209 y_a6_proc_0 >= 8
 c377: u_a6 - u_a13 - 1223 y_a13_proc_2 >= -2541
 c378: u_a6 - u_a13 - 985 y_a13_proc_0 >= -9
 c379: u_a14 - u_a6 - 986 y_a6_proc_2 >= -2515
 c380: u_a14 - u_a6 - 1209 y_a6_proc_0 >= -1249
 c381: u_a6 - u_a14 - 1106 y_a14_proc_2 >= -2550
 c382: u_a6 - u_a14 - 850 y_a14_proc_0 >= -1284
 c383: u_a8 - u_a7 - 974 y_a7_proc_0 >= -2550
 c384: u_a8 - u_a7 - 1119 y_a7_proc_1 >= -18
 c385: u_a7 - u_a8 - 1088 y_a8_proc_0 >= -2515
 c386: u_a7 - u_a8 - 705 y_a8_proc_1 >= 17
 c387: u_a9 - u_a7 - 974 y_a7_proc_0 >= -2515
 c388: u_a7 - u_a9 - 858 y_a9_proc_0 >= -2550
 c389: u_a10 - u_a7 - 974 y_a7_proc_0 >= -1284
 c390: u_a7 - u_a10 - 1056 y_a10_proc_0 >= -1249
 c391: u_a11 - u_a7 - 974 y_a7_proc_0 >= -2515
 c392: u_a11 - u_a7 - 1119 y_a7_proc_1 >= -1249
 c393: u_a7 - u_a11 - 1080 y_a11_proc_0 >= -2550
 c394: u_a7 - u_a11 - 981 y_a11_proc_1 >= -1284
 c395: u_a12 - u_a7 - 974 y_a7_proc_0 >= -2550
 c396: u_a12 - u_a7 - 1119 y_a7_proc_1 >= -1284
 c397: u_a7 - u_a12 - 1202 y_a12_proc_0 >= -2515
 c398: u_a7 - u_a12 - 1266 y_a12_proc_1 >= -1249
 c399: u_a13 - u_a7 - 974 y_a7_proc_0 >= -1284
 c400: u_a13 - u_a7 - 1119 y_a7_proc_1 >= -1284
 c401: u_a7 - u_a13 - 985 y_a13_proc_0 >= -1249
 c402: u_a7 - u_a13 - 1165 y_a13_proc_1 >= -1249
 c403: u_a14 - u_a7 - 974 y_a7_proc_0 >= -2532
 c404: u_a14 - u_a7 - 1119 y_a7_proc_1 >= 0
 c405: u_a7 - u_a14 - 850 y_a14_proc_0 >= -2533
 c406: u_a7 - u_a14 - 1150 y_a14_proc_1 >= -1
 c407: u_a9 - u_a8 - 1089 y_a8_proc_2 >= -1284
 c408: u_a9 - u_a8 - 1088 y_a8_proc_0 >= -2550
 c409: u_a8 - u_a9 - 1044 y_a9_proc_2 >= -1249
 c410: u_a8 - u_a9 - 858 y_a9_proc_0 >= -2515
 c411: u_a10 - u_a8 - 1089 y_a8_proc_2 >= -2550
 c412: u_a10 - u_a8 - 1088 y_a8_proc_0 >= -1284
 c413: u_a8 - u_a10 - 1254 y_a10_proc_2 >= -2515
 c414: u_a8 - u_a10 - 1056 y_a10_proc_0 >= -1249
 c415: u_a11 - u_a8 - 1089 y_a8_proc_2 >= -1284
 c416: u_a11 - u_a8 - 1088 y_a8_proc_0 >= -2550
 c417: u_a11 - u_a8 - 705 y_a8_proc_1 >= -1284
 c418: u_a8 - u_a11 - 848 y_a11_proc_2 >= -1249
 c419: u_a8 - u_a11 - 1080 y_a11_proc_0 >= -2515
 c420: u_a8 - u_a11 - 981 y_a11_proc_1 >= -1249
 c421: u_a12 - u_a8 - 1089 y_a8_proc_2 >= -1284
 c422: u_a12 - u_a8 - 1088 y_a8_proc_0 >= -2550
 c423: u_a12 - u_a8 - 705 y_a8_proc_1 >= -1284
 c424: u_a8 - u_a12 - 448 y_a12_proc_2 >= -1249
 c425: u_a8 - u_a12 - 1202 y_a12_proc_0 >= -2515
 c426: u_a8 - u_a12 - 1266 y_a12_proc_1 >= -1249
 c427: u_a13 - u_a8 - 1089 y_a8_proc_2 >= -2550
 c428: u_a13 - u_a8 - 1088 y_a8_proc_0 >= -1284
 c429: u_a13 - u_a8 - 705 y_a8_proc_1 >= -1284
 c430: u_a8 - u_a13 - 1223 y_a13_proc_2 >= -2515
 c431: u_a8 - u_a13 - 985 y_a13_proc_0 >= -1249
 c432: u_a8 - u_a13 - 1165 y_a13_proc_1 >= -1249
 c433: u_a14 - u_a8 - 1089 y_a8_proc_2 >= -2515
 c434: u_a14 - u_a8 - 1088 y_a8_proc_0 >= -2515
 c435: u_a14 - u_a8 - 705 y_a8_proc_1 >= 17
 c436: u_a8 - u_a14 - 1106 y_a14_proc_2 >= -2550
 c437: u_a8 - u_a14 - 850 y_a14_proc_0 >= -2550
 c438: u_a8 - u_a14 - 1150 y_a14_proc_1 >= -18
 c439: u_a10 - u_a9 - 1044 y_a9_proc_2 >= -1249
 c440: u_a10 - u_a9 - 858 y_a9_proc_0 >= -1249
 c441: u_a9 - u_a10 - 1254 y_a10_proc_2 >= -1284
 c442: u_a9 - u_a10 - 1056 y_a10_proc_0 >= -1284
 c443: u_a11 - u_a9 - 1044 y_a9_proc_2 >= 8
 c444: u_a11 - u_a9 - 858 y_a9_proc_0 >= -2524
 c445: u_a9 - u_a11 - 848 y_a11_proc_2 >= -9
 c446: u_a9 - u_a11 - 1080 y_a11_proc_0 >= -2541
 c447: u_a12 - u_a9 - 1044 y_a9_proc_2 >= 9
 c448: u_a12 - u_a9 - 858 y_a9_proc_0 >= -2523
 c449: u_a9 - u_a12 - 448 y_a12_proc_2 >= -10
 c450: u_a9 - u_a12 - 1202 y_a12_proc_0 >= -2542
 c451: u_a13 - u_a9 - 1044 y_a9_proc_2 >= -1284
 c452: u_a13 - u_a9 - 858 y_a9_proc_0 >= -1284
 c453: u_a9 - u_a13 - 1223 y_a13_proc_2 >= -1249
 c454: u_a9 - u_a13 - 985 y_a13_proc_0 >= -1249
 c455: u_a14 - u_a9 - 1044 y_a9_proc_2 >= -1284
 c456: u_a14 - u_a9 - 858 y_a9_proc_0 >= -2550
 c457: u_a9 - u_a14 - 1106 y_a14_proc_2 >= -1249
 c458: u_a9 - u_a14 - 850 y_a14_proc_0 >= -2515
 c459: u_a11 - u_a10 - 1254 y_a10_proc_2 >= -1284
 c460: u_a11 - u_a10 - 1056 y_a10_proc_0 >= -1284
 c461: u_a10 - u_a11 - 848 y_a11_proc_2 >= -1249
 c462: u_a10 - u_a11 - 1080 y_a11_proc_0 >= -1249
 c463: u_a12 - u_a10 - 1254 y_a10_proc_2 >= -1249
 c464: u_a12 - u_a10 - 1056 y_a10_proc_0 >= -1249
 c465: u_a10 - u_a12 - 448 y_a12_proc_2 >= -1284
 c466: u_a10 - u_a12 - 1202 y_a12_proc_0 >= -1284
 c467: u_a13 - u_a10 - 1254 y_a10_proc_2 >= -2532
 c468: u_a13 - u_a10 - 1056 y_a10_proc_0 >= 0
 c469: u_a10 - u_a13 - 1223 y_a13_proc_2 >= -2533
 c470: u_a10 - u_a13 - 985 y_a13_proc_0 >= -1
 c471: u_a14 - u_a10 - 1254 y_a10_proc_2 >= -2515
 c472: u_a14 - u_a10 - 1056 y_a10_proc_0 >= -1249
 c473: u_a10 - u_a14 - 1106 y_a14_proc_2 >= -2550
 c474: u_a10 - u_a14 - 850 y_a14_proc_0 >= -1284
 c475: u_a12 - u_a11 - 848 y_a11_proc_2 >= 0
 c476: u_a12 - u_a11 - 1080 y_a11_proc_0 >= -2532
 c477: u_a12 - u_a11 - 981 y_a11_proc_1 >= -2532
 c478: u_a11 - u_a12 - 448 y_a12_proc_2 >= -1
 c479: u_a11 - u_a12 - 1202 y_a12_proc_0 >= -2533
 c480: u_a11 - u_a12 - 1266 y_a12_proc_1 >= -2533
 c481: u_a13 - u_a11 - 848 y_a11_proc_2 >= -1284
 c482: u_a13 - u_a11 - 1080 y_a11_proc_0 >= -1284
 c483: u_a13 - u_a11 - 981 y_a11_proc_1 >= -2550
 c484: u_a11 - u_a13 - 1223 y_a13_proc_2 >= -1249
 c485: u_a11 - u_a13 - 985 y_a13_proc_0 >= -1249
 c486: u_a11 - u_a13 - 1165 y_a13_proc_1 >= -2515
 c487: u_a14 - u_a11 - 848 y_a11_proc_2 >= -1249
 c488: u_a14 - u_a11 - 1080 y_a11_proc_0 >= -2515
 c489: u_a14 - u_a11 - 981 y_a11_proc_1 >= -1249
 c490: u_a11 - u_a14 - 1106 y_a14_proc_2 >= -1284
 c491: u_a11 - u_a14 - 850 y_a14_proc_0 >= -2550
 c492: u_a11 - u_a14 - 1150 y_a14_proc_1 >= -1284
 c493: u_a13 - u_a12 - 448 y_a12_proc_2 >= -1284
 c494: u_a13 - u_a12 - 1202 y_a12_proc_0 >= -1284
 c495: u_a13 - u_a12 - 1266 y_a12_proc_1 >= -2550
 c496: u_a12 - u_a13 - 1223 y_a13_proc_2 >= -1249
 c497: u_a12 - u_a13 - 985 y_a13_proc_0 >= -1249
 c498: u_a12 - u_a13 - 1165 y_a13_proc_1 >= -2515
 c499: u_a14 - u_a12 - 448 y_a12_proc_2 >= -1249
 c500: u_a14 - u_a12 - 1202 y_a12_proc_0 >= -2515
 c501: u_a14 - u_a12 - 1266 y_a12_proc_1 >= -1249
 c502: u_a12 - u_a14 - 1106 y_a14_proc_2 >= -1284
 c503: u_a12 - u_a14 - 850 y_a14_proc_0 >= -2550
 c504: u_a12 - u_a14 - 1150 y_a14_proc_1 >= -1284
 c505: u_a14 - u_a13 - 1223 y_a13_proc_2 >= -2515
 c506: u_a14 - u_a13 - 985 y_a13_proc_0 >= -1249
 c507: u_a14 - u_a13 - 1165 y_a13_proc_1 >= -1249
 c508: u_a13 - u_a14 - 1106 y_a14_proc_2 >= -2550
 c509: u_a13 - u_a14 - 850 y_a14_proc_0 >= -1284
 c510: u_a13 - u_a14 - 1150 y_a14_proc_1 >= -1284

Bounds
End
